238190.09,19.47,21.33
247170.34,18.76,20.55
243869.83,19.02,20.83
252754.57,18.35,20.1
252467.8,18.37,20.12
260371.59,17.81,19.51
246643.49,18.8,20.59
242521.56,19.12,20.94
253055.98,18.33,20.07
265901.19,17.44,19.1
246006.79,18.85,20.65
253285.62,18.31,20.05
245674.41,18.88,20.68
264646.09,17.52,19.19
257051.82,18.04,19.76
247416.67,18.74,20.53
256184.85,18.1,19.83
266048.25,17.43,19.09
267896.21,17.31,18.96
265647.71,17.46,19.12
